04_frontend_stage/rtl-wb_bridge/formal/wb_bridge/model/design_smt2.smt2
; SMT-LIBv2 description generated by Yosys 0.65+71 (git sha1 e56c6a954, clang++ 18.1.8 -fPIC -O3)
; yosys-smt2-module wb_bridge
(declare-sort |wb_bridge_s| 0)
(declare-fun |wb_bridge_is| (|wb_bridge_s|) Bool)
; yosys-smt2-anyseq wb_bridge#0 2 $auto$setundef.cc:550:execute$141
; yosys-smt2-witness {"offset": 0, "path": ["\\_witness_", "\\anyseq_auto_setundef_cc_550_execute_141"], "smtname": 0, "smtoffset": 0, "type": "seq", "width": 2}
(declare-fun |wb_bridge#0| (|wb_bridge_s|) (_ BitVec 2)) ; \_witness_.anyseq_auto_setundef_cc_550_execute_141
; yosys-smt2-wire _witness_.anyseq_auto_setundef_cc_550_execute_141 2
(define-fun |wb_bridge_n _witness_.anyseq_auto_setundef_cc_550_execute_141| ((state |wb_bridge_s|)) (_ BitVec 2) (|wb_bridge#0| state))
; yosys-smt2-anyinit wb_bridge#1 32 wb_bridge.v:103.5-115.8
; yosys-smt2-witness {"offset": 0, "path": ["\\_witness_", "\\anyinit_procdff_114"], "smtname": 1, "smtoffset": 0, "type": "init", "width": 32}
(declare-fun |wb_bridge#1| (|wb_bridge_s|) (_ BitVec 32)) ; \_witness_.anyinit_procdff_114
; yosys-smt2-register _witness_.anyinit_procdff_114 32
; yosys-smt2-wire _witness_.anyinit_procdff_114 32
(define-fun |wb_bridge_n _witness_.anyinit_procdff_114| ((state |wb_bridge_s|)) (_ BitVec 32) (|wb_bridge#1| state))
; yosys-smt2-anyinit wb_bridge#2 1 wb_bridge.v:103.5-115.8
; yosys-smt2-witness {"offset": 0, "path": ["\\_witness_", "\\anyinit_procdff_119"], "smtname": 2, "smtoffset": 0, "type": "init", "width": 1}
(declare-fun |wb_bridge#2| (|wb_bridge_s|) (_ BitVec 1)) ; \_witness_.anyinit_procdff_119
; yosys-smt2-register _witness_.anyinit_procdff_119 1
; yosys-smt2-wire _witness_.anyinit_procdff_119 1
(define-fun |wb_bridge_n _witness_.anyinit_procdff_119| ((state |wb_bridge_s|)) Bool (= ((_ extract 0 0) (|wb_bridge#2| state)) #b1))
; yosys-smt2-anyinit wb_bridge#3 2 wb_bridge.v:51.5-57.8
; yosys-smt2-witness {"offset": 0, "path": ["\\_witness_", "\\anyinit_procdff_124"], "smtname": 3, "smtoffset": 0, "type": "init", "width": 2}
(declare-fun |wb_bridge#3| (|wb_bridge_s|) (_ BitVec 2)) ; \_witness_.anyinit_procdff_124
; yosys-smt2-register _witness_.anyinit_procdff_124 2
; yosys-smt2-wire _witness_.anyinit_procdff_124 2
(define-fun |wb_bridge_n _witness_.anyinit_procdff_124| ((state |wb_bridge_s|)) (_ BitVec 2) (|wb_bridge#3| state))
(declare-fun |wb_bridge#4| (|wb_bridge_s|) (_ BitVec 31)) ; \wb_adr_i [30:0]
; yosys-smt2-output apb_paddr 32
; yosys-smt2-wire apb_paddr 32
(define-fun |wb_bridge_n apb_paddr| ((state |wb_bridge_s|)) (_ BitVec 32) (concat #b0 (|wb_bridge#4| state)))
(declare-fun |wb_bridge#5| (|wb_bridge_s|) (_ BitVec 1)) ; \rst_ni
(define-fun |wb_bridge#6| ((state |wb_bridge_s|)) (_ BitVec 2) (ite (= ((_ extract 0 0) (|wb_bridge#5| state)) #b1) (|wb_bridge#3| state) #b00)) ; \state
(define-fun |wb_bridge#7| ((state |wb_bridge_s|)) Bool (= (|wb_bridge#6| state) #b10)) ; $eq$wb_bridge.v:108$9_Y
(define-fun |wb_bridge#8| ((state |wb_bridge_s|)) (_ BitVec 1) (ite (|wb_bridge#7| state) #b1 #b0)) ; \apb_penable
; yosys-smt2-output apb_penable 1
; yosys-smt2-wire apb_penable 1
(define-fun |wb_bridge_n apb_penable| ((state |wb_bridge_s|)) Bool (= ((_ extract 0 0) (|wb_bridge#8| state)) #b1))
(declare-fun |wb_bridge#9| (|wb_bridge_s|) (_ BitVec 32)) ; \apb_prdata
; yosys-smt2-input apb_prdata 32
; yosys-smt2-wire apb_prdata 32
; yosys-smt2-witness {"offset": 0, "path": ["\\apb_prdata"], "smtname": "apb_prdata", "smtoffset": 0, "type": "input", "width": 32}
(define-fun |wb_bridge_n apb_prdata| ((state |wb_bridge_s|)) (_ BitVec 32) (|wb_bridge#9| state))
(declare-fun |wb_bridge#10| (|wb_bridge_s|) Bool) ; \apb_pready
; yosys-smt2-input apb_pready 1
; yosys-smt2-wire apb_pready 1
; yosys-smt2-witness {"offset": 0, "path": ["\\apb_pready"], "smtname": "apb_pready", "smtoffset": 0, "type": "input", "width": 1}
(define-fun |wb_bridge_n apb_pready| ((state |wb_bridge_s|)) Bool (|wb_bridge#10| state))
(define-fun |wb_bridge#11| ((state |wb_bridge_s|)) Bool (= (|wb_bridge#6| state) #b01)) ; $procmux$108_CMP
(define-fun |wb_bridge#12| ((state |wb_bridge_s|)) Bool (or  (|wb_bridge#7| state) (|wb_bridge#11| state))) ; $auto$opt_reduce.cc:135:opt_pmux$126
(define-fun |wb_bridge#13| ((state |wb_bridge_s|)) (_ BitVec 1) (ite (|wb_bridge#12| state) #b1 #b0)) ; \apb_psel
; yosys-smt2-output apb_psel 1
; yosys-smt2-wire apb_psel 1
(define-fun |wb_bridge_n apb_psel| ((state |wb_bridge_s|)) Bool (= ((_ extract 0 0) (|wb_bridge#13| state)) #b1))
(declare-fun |wb_bridge#14| (|wb_bridge_s|) Bool) ; \apb_pslverr
; yosys-smt2-input apb_pslverr 1
; yosys-smt2-wire apb_pslverr 1
; yosys-smt2-witness {"offset": 0, "path": ["\\apb_pslverr"], "smtname": "apb_pslverr", "smtoffset": 0, "type": "input", "width": 1}
(define-fun |wb_bridge_n apb_pslverr| ((state |wb_bridge_s|)) Bool (|wb_bridge#14| state))
(declare-fun |wb_bridge#15| (|wb_bridge_s|) (_ BitVec 32)) ; \wb_dat_i
; yosys-smt2-output apb_pwdata 32
; yosys-smt2-wire apb_pwdata 32
(define-fun |wb_bridge_n apb_pwdata| ((state |wb_bridge_s|)) (_ BitVec 32) (|wb_bridge#15| state))
(declare-fun |wb_bridge#16| (|wb_bridge_s|) Bool) ; \wb_we_i
; yosys-smt2-output apb_pwrite 1
; yosys-smt2-wire apb_pwrite 1
(define-fun |wb_bridge_n apb_pwrite| ((state |wb_bridge_s|)) Bool (|wb_bridge#16| state))
(declare-fun |wb_bridge#17| (|wb_bridge_s|) Bool) ; \clk_i
; yosys-smt2-input clk_i 1
; yosys-smt2-wire clk_i 1
; yosys-smt2-clock clk_i posedge
; yosys-smt2-witness {"offset": 0, "path": ["\\clk_i"], "smtname": "clk_i", "smtoffset": 0, "type": "posedge", "width": 1}
; yosys-smt2-witness {"offset": 0, "path": ["\\clk_i"], "smtname": "clk_i", "smtoffset": 0, "type": "input", "width": 1}
(define-fun |wb_bridge_n clk_i| ((state |wb_bridge_s|)) Bool (|wb_bridge#17| state))
(define-fun |wb_bridge#18| ((state |wb_bridge_s|)) (_ BitVec 2) (ite (|wb_bridge#10| state) #b11 (|wb_bridge#6| state))) ; $3\next_state[1:0]
(declare-fun |wb_bridge#19| (|wb_bridge_s|) Bool) ; \wb_cyc_i
(declare-fun |wb_bridge#20| (|wb_bridge_s|) Bool) ; \wb_stb_i
(define-fun |wb_bridge#21| ((state |wb_bridge_s|)) Bool (and (or  (|wb_bridge#19| state) false) (or  (|wb_bridge#20| state) false))) ; $logic_and$wb_bridge.v:118$14_Y
(declare-fun |wb_bridge#22| (|wb_bridge_s|) Bool) ; \wb_adr_i [31]
(define-fun |wb_bridge#23| ((state |wb_bridge_s|)) Bool (and (or  (|wb_bridge#21| state) false) (or  (|wb_bridge#22| state) false))) ; $logic_and$wb_bridge.v:63$5_Y
(define-fun |wb_bridge#24| ((state |wb_bridge_s|)) (_ BitVec 2) (ite (|wb_bridge#23| state) #b01 (|wb_bridge#6| state))) ; $2\next_state[1:0]
(define-fun |wb_bridge#25| ((state |wb_bridge_s|)) Bool (= (|wb_bridge#6| state) #b11)) ; $procmux$106_CMP
(define-fun |wb_bridge#26| ((state |wb_bridge_s|)) Bool (not (or  (= ((_ extract 0 0) (|wb_bridge#6| state)) #b1) (= ((_ extract 1 1) (|wb_bridge#6| state)) #b1)))) ; $procmux$104_CMP
(define-fun |wb_bridge#27| ((state |wb_bridge_s|)) (_ BitVec 2) (ite (|wb_bridge#26| state) (|wb_bridge#24| state) (ite (|wb_bridge#11| state) #b10 (ite (|wb_bridge#7| state) (|wb_bridge#18| state) (ite (|wb_bridge#25| state) #b00 (|wb_bridge#0| state)))))) ; \next_state
; yosys-smt2-wire next_state 2
(define-fun |wb_bridge_n next_state| ((state |wb_bridge_s|)) (_ BitVec 2) (|wb_bridge#27| state))
; yosys-smt2-input rst_ni 1
; yosys-smt2-wire rst_ni 1
; yosys-smt2-witness {"offset": 0, "path": ["\\rst_ni"], "smtname": "rst_ni", "smtoffset": 0, "type": "input", "width": 1}
(define-fun |wb_bridge_n rst_ni| ((state |wb_bridge_s|)) Bool (= ((_ extract 0 0) (|wb_bridge#5| state)) #b1))
; yosys-smt2-wire state 2
(define-fun |wb_bridge_n state| ((state |wb_bridge_s|)) (_ BitVec 2) (|wb_bridge#6| state))
(define-fun |wb_bridge#28| ((state |wb_bridge_s|)) (_ BitVec 1) (ite (= ((_ extract 0 0) (|wb_bridge#5| state)) #b1) (|wb_bridge#2| state) #b0)) ; \wb_ack_o
; yosys-smt2-output wb_ack_o 1
; yosys-smt2-wire wb_ack_o 1
(define-fun |wb_bridge_n wb_ack_o| ((state |wb_bridge_s|)) Bool (= ((_ extract 0 0) (|wb_bridge#28| state)) #b1))
; yosys-smt2-input wb_adr_i 32
; yosys-smt2-wire wb_adr_i 32
; yosys-smt2-witness {"offset": 0, "path": ["\\wb_adr_i"], "smtname": "wb_adr_i", "smtoffset": 0, "type": "input", "width": 32}
(define-fun |wb_bridge_n wb_adr_i| ((state |wb_bridge_s|)) (_ BitVec 32) (concat (ite (|wb_bridge#22| state) #b1 #b0) (|wb_bridge#4| state)))
; yosys-smt2-input wb_cyc_i 1
; yosys-smt2-wire wb_cyc_i 1
; yosys-smt2-witness {"offset": 0, "path": ["\\wb_cyc_i"], "smtname": "wb_cyc_i", "smtoffset": 0, "type": "input", "width": 1}
(define-fun |wb_bridge_n wb_cyc_i| ((state |wb_bridge_s|)) Bool (|wb_bridge#19| state))
; yosys-smt2-input wb_dat_i 32
; yosys-smt2-wire wb_dat_i 32
; yosys-smt2-witness {"offset": 0, "path": ["\\wb_dat_i"], "smtname": "wb_dat_i", "smtoffset": 0, "type": "input", "width": 32}
(define-fun |wb_bridge_n wb_dat_i| ((state |wb_bridge_s|)) (_ BitVec 32) (|wb_bridge#15| state))
(define-fun |wb_bridge#29| ((state |wb_bridge_s|)) (_ BitVec 32) (ite (= ((_ extract 0 0) (|wb_bridge#5| state)) #b1) (|wb_bridge#1| state) #b00000000000000000000000000000000)) ; \wb_dat_o
; yosys-smt2-output wb_dat_o 32
; yosys-smt2-wire wb_dat_o 32
(define-fun |wb_bridge_n wb_dat_o| ((state |wb_bridge_s|)) (_ BitVec 32) (|wb_bridge#29| state))
(define-fun |wb_bridge#30| ((state |wb_bridge_s|)) Bool (and (or  (|wb_bridge#7| state) false) (or  (|wb_bridge#10| state) false))) ; $logic_and$wb_bridge.v:108$10_Y
(define-fun |wb_bridge#31| ((state |wb_bridge_s|)) Bool (and (or  (|wb_bridge#30| state) false) (or  (|wb_bridge#14| state) false))) ; $logic_and$wb_bridge.v:117$13_Y
(define-fun |wb_bridge#32| ((state |wb_bridge_s|)) Bool (not (or  (|wb_bridge#22| state) false))) ; $logic_not$wb_bridge.v:118$15_Y
(define-fun |wb_bridge#33| ((state |wb_bridge_s|)) Bool (and (or  (|wb_bridge#21| state) false) (or  (|wb_bridge#32| state) false))) ; $logic_and$wb_bridge.v:118$16_Y
(define-fun |wb_bridge#34| ((state |wb_bridge_s|)) Bool (or  (|wb_bridge#31| state) false  (|wb_bridge#33| state) false)) ; \wb_err_o
; yosys-smt2-output wb_err_o 1
; yosys-smt2-wire wb_err_o 1
(define-fun |wb_bridge_n wb_err_o| ((state |wb_bridge_s|)) Bool (|wb_bridge#34| state))
; yosys-smt2-wire wb_in_window 1
(define-fun |wb_bridge_n wb_in_window| ((state |wb_bridge_s|)) Bool (|wb_bridge#22| state))
(declare-fun |wb_bridge#35| (|wb_bridge_s|) (_ BitVec 4)) ; \wb_sel_i
; yosys-smt2-input wb_sel_i 4
; yosys-smt2-wire wb_sel_i 4
; yosys-smt2-witness {"offset": 0, "path": ["\\wb_sel_i"], "smtname": "wb_sel_i", "smtoffset": 0, "type": "input", "width": 4}
(define-fun |wb_bridge_n wb_sel_i| ((state |wb_bridge_s|)) (_ BitVec 4) (|wb_bridge#35| state))
; yosys-smt2-input wb_stb_i 1
; yosys-smt2-wire wb_stb_i 1
; yosys-smt2-witness {"offset": 0, "path": ["\\wb_stb_i"], "smtname": "wb_stb_i", "smtoffset": 0, "type": "input", "width": 1}
(define-fun |wb_bridge_n wb_stb_i| ((state |wb_bridge_s|)) Bool (|wb_bridge#20| state))
; yosys-smt2-input wb_we_i 1
; yosys-smt2-wire wb_we_i 1
; yosys-smt2-witness {"offset": 0, "path": ["\\wb_we_i"], "smtname": "wb_we_i", "smtoffset": 0, "type": "input", "width": 1}
(define-fun |wb_bridge_n wb_we_i| ((state |wb_bridge_s|)) Bool (|wb_bridge#16| state))
(define-fun |wb_bridge#36| ((state |wb_bridge_s|)) (_ BitVec 1) (bvnot (ite (|wb_bridge#17| state) #b1 #b0))) ; $auto$rtlil.cc:3255:Not$144
; yosys-smt2-assume 0 $auto$formalff.cc:987:execute$145
(define-fun |wb_bridge_u 0| ((state |wb_bridge_s|)) Bool (or (= ((_ extract 0 0) (|wb_bridge#36| state)) #b1) (not true))) ; $auto$formalff.cc:987:execute$145
(define-fun |wb_bridge#37| ((state |wb_bridge_s|)) (_ BitVec 2) (ite (= ((_ extract 0 0) (|wb_bridge#5| state)) #b1) (|wb_bridge#27| state) #b00)) ; $auto$rtlil.cc:3390:Mux$134
(define-fun |wb_bridge#38| ((state |wb_bridge_s|)) (_ BitVec 1) (ite (|wb_bridge#30| state) #b1 #b0)) ; $0\wb_ack_o[0:0]
(define-fun |wb_bridge#39| ((state |wb_bridge_s|)) (_ BitVec 1) (ite (= ((_ extract 0 0) (|wb_bridge#5| state)) #b1) (|wb_bridge#38| state) #b0)) ; $auto$rtlil.cc:3390:Mux$136
(define-fun |wb_bridge#40| ((state |wb_bridge_s|)) (_ BitVec 32) (ite (|wb_bridge#30| state) (|wb_bridge#9| state) (|wb_bridge#29| state))) ; $0\wb_dat_o[31:0]
(define-fun |wb_bridge#41| ((state |wb_bridge_s|)) (_ BitVec 32) (ite (= ((_ extract 0 0) (|wb_bridge#5| state)) #b1) (|wb_bridge#40| state) #b00000000000000000000000000000000)) ; $auto$rtlil.cc:3390:Mux$138
(define-fun |wb_bridge_a| ((state |wb_bridge_s|)) Bool true)
(define-fun |wb_bridge_u| ((state |wb_bridge_s|)) Bool 
  (|wb_bridge_u 0| state)
)
(define-fun |wb_bridge_i| ((state |wb_bridge_s|)) Bool true)
(define-fun |wb_bridge_h| ((state |wb_bridge_s|)) Bool true)
(define-fun |wb_bridge_t| ((state |wb_bridge_s|) (next_state |wb_bridge_s|)) Bool (and
  (= (|wb_bridge#37| state) (|wb_bridge#3| next_state)) ; $procdff$124 \_witness_.anyinit_procdff_124
  (= (|wb_bridge#39| state) (|wb_bridge#2| next_state)) ; $procdff$119 \_witness_.anyinit_procdff_119
  (= (|wb_bridge#41| state) (|wb_bridge#1| next_state)) ; $procdff$114 \_witness_.anyinit_procdff_114
)) ; end of module wb_bridge
; yosys-smt2-topmod wb_bridge
; end of yosys output
